decision_x1=[0,7];
decision_x2=[0,7];
decision_x3=[0,7];
decision_x4=[0,7];
decision_x5=[0,7];
decision_x6=[0,7];
decision_x7=[0,7];
decision_x8=[0,7];
decision_x9=[0,7];
decision_x10=[0,7];
decision_x11=[0,7];
decision_x12=[0,7];
decision_x13=[0,7];
decision_x14=[0,7];
random_y1=[0,7];
random_y2=[0,7];
random_y3=[0,7];
random_y4=[0,7];
random_y5=[0,7];
random_y6=[0,7];
constraint_x2_x1=[
0,0,8.4|
0,1,0.25|
0,2,8|
0,3,4.7|
0,4,2.4|
0,5,1.4|
0,6,6|
0,7,8.5|
1,0,5.9|
1,1,2.5|
1,2,2.4|
1,3,2.1|
1,4,2.9|
1,5,1.9|
1,6,0.12|
1,7,5.7|
2,0,7.3|
2,1,6.8|
2,2,7.6|
2,3,4.1|
2,4,1.4|
2,5,5.6|
2,6,4.1|
2,7,9|
3,0,7|
3,1,5.3|
3,2,0.96|
3,3,0.14|
3,4,4.7|
3,5,3|
3,6,5.8|
3,7,0.99|
4,0,7.5|
4,1,2.3|
4,2,3.5|
4,3,6.9|
4,4,1.1|
4,5,1.8|
4,6,6.4|
4,7,9.3|
5,0,7.4|
5,1,1.5|
5,2,4.1|
5,3,8.2|
5,4,2.2|
5,5,7.3|
5,6,8.9|
5,7,9.8|
6,0,0.1|
6,1,2|
6,2,9.7|
6,3,4.6|
6,4,3.6|
6,5,5|
6,6,7.4|
6,7,9.7|
7,0,1.4|
7,1,2.9|
7,2,4.5|
7,3,2.7|
7,4,9.3|
7,5,9|
7,6,6.2|
7,7,7.5|
];
constraint_x3_x2=[
0,0,8|
0,1,4.3|
0,2,7.2|
0,3,8.1|
0,4,6.9|
0,5,1.5|
0,6,6.2|
0,7,7.3|
1,0,7.1|
1,1,0.65|
1,2,0.091|
1,3,7.2|
1,4,0.54|
1,5,0.3|
1,6,3.6|
1,7,0.61|
2,0,8.9|
2,1,5.9|
2,2,1.8|
2,3,4|
2,4,2.8|
2,5,0.34|
2,6,7.3|
2,7,8.4|
3,0,7|
3,1,8.3|
3,2,3.1|
3,3,5.8|
3,4,6.9|
3,5,4.3|
3,6,6.9|
3,7,0.03|
4,0,1.3|
4,1,9.3|
4,2,0.044|
4,3,3.7|
4,4,2.2|
4,5,0.97|
4,6,3.7|
4,7,0.22|
5,0,9.5|
5,1,5.6|
5,2,5.2|
5,3,0.52|
5,4,2|
5,5,5.2|
5,6,8.6|
5,7,8.4|
6,0,1.8|
6,1,7.2|
6,2,4.2|
6,3,5.4|
6,4,7.7|
6,5,9.9|
6,6,2.5|
6,7,0.95|
7,0,9|
7,1,4.3|
7,2,5.7|
7,3,8.8|
7,4,6.5|
7,5,2.3|
7,6,3.4|
7,7,4.2|
];
constraint_x4_x3=[
0,0,3.1|
0,1,5.8|
0,2,7.8|
0,3,8.6|
0,4,2.4|
0,5,3.4|
0,6,4.8|
0,7,9.1|
1,0,3.8|
1,1,8.1|
1,2,5.7|
1,3,5.6|
1,4,6.6|
1,5,5.6|
1,6,6.3|
1,7,3.6|
2,0,5|
2,1,6.8|
2,2,6.2|
2,3,8.9|
2,4,9|
2,5,5.2|
2,6,8.7|
2,7,4.2|
3,0,9.2|
3,1,4.1|
3,2,5.9|
3,3,8.6|
3,4,9.6|
3,5,5.9|
3,6,3.4|
3,7,7.3|
4,0,0.26|
4,1,2.4|
4,2,7.1|
4,3,8.6|
4,4,5.6|
4,5,8.4|
4,6,8.6|
4,7,7.3|
5,0,4.1|
5,1,2.4|
5,2,3.4|
5,3,1.2|
5,4,4.9|
5,5,1.1|
5,6,7.2|
5,7,8|
6,0,1.9|
6,1,4|
6,2,7.2|
6,3,9.6|
6,4,2.5|
6,5,7.5|
6,6,9.1|
6,7,5.8|
7,0,6.3|
7,1,4.1|
7,2,7.4|
7,3,9.5|
7,4,9.2|
7,5,8.9|
7,6,4.9|
7,7,9|
];
constraint_x5_x1=[
0,0,6.7|
0,1,2|
0,2,5.9|
0,3,5.5|
0,4,1.8|
0,5,4.9|
0,6,9.3|
0,7,0.14|
1,0,8.4|
1,1,5.6|
1,2,8.1|
1,3,0.54|
1,4,0.0009|
1,5,8.6|
1,6,2|
1,7,2.9|
2,0,3.6|
2,1,5.5|
2,2,7.5|
2,3,0.06|
2,4,0.75|
2,5,5.4|
2,6,4.4|
2,7,1.8|
3,0,5.6|
3,1,9.4|
3,2,8.3|
3,3,9.3|
3,4,2.4|
3,5,3.1|
3,6,9.6|
3,7,5.1|
4,0,8.5|
4,1,1.6|
4,2,9.3|
4,3,6.5|
4,4,3.8|
4,5,2.6|
4,6,9.3|
4,7,0.27|
5,0,6.3|
5,1,1.6|
5,2,7.3|
5,3,9.8|
5,4,4.2|
5,5,2.5|
5,6,7.4|
5,7,2|
6,0,7.7|
6,1,2.6|
6,2,4.2|
6,3,4.6|
6,4,3|
6,5,8.4|
6,6,5.9|
6,7,7.6|
7,0,5.9|
7,1,3.4|
7,2,3.2|
7,3,8.9|
7,4,9.3|
7,5,8.5|
7,6,3.5|
7,7,4.6|
];
constraint_x6_x2=[
0,0,1.5|
0,1,6.8|
0,2,6.3|
0,3,6.1|
0,4,4|
0,5,3.9|
0,6,1.4|
0,7,1.2|
1,0,9.4|
1,1,3.8|
1,2,4.9|
1,3,7.2|
1,4,9.8|
1,5,9.8|
1,6,7|
1,7,2.3|
2,0,2.3|
2,1,9.4|
2,2,4|
2,3,9.2|
2,4,7.9|
2,5,0.12|
2,6,5.3|
2,7,8.3|
3,0,7|
3,1,0.14|
3,2,2.3|
3,3,0.32|
3,4,5.3|
3,5,4.3|
3,6,9.8|
3,7,9.7|
4,0,5.2|
4,1,1.2|
4,2,1.1|
4,3,7.4|
4,4,9.1|
4,5,9.4|
4,6,2.2|
4,7,2.6|
5,0,8.4|
5,1,7.7|
5,2,7.1|
5,3,3.7|
5,4,6.6|
5,5,9.9|
5,6,7|
5,7,6.4|
6,0,4.2|
6,1,6.7|
6,2,8.4|
6,3,0.26|
6,4,3.7|
6,5,6.2|
6,6,0.31|
6,7,3.1|
7,0,2.4|
7,1,6|
7,2,0.71|
7,3,5|
7,4,4.1|
7,5,0.96|
7,6,9.8|
7,7,3|
];
constraint_x6_x5=[
0,0,4.7|
0,1,1.6|
0,2,7|
0,3,3|
0,4,3.2|
0,5,2.9|
0,6,0.48|
0,7,7.4|
1,0,9.5|
1,1,6.8|
1,2,4.2|
1,3,8.9|
1,4,7.7|
1,5,9|
1,6,4.9|
1,7,7.4|
2,0,9.9|
2,1,2.2|
2,2,5.9|
2,3,8.1|
2,4,1.9|
2,5,7.4|
2,6,4.1|
2,7,5.3|
3,0,4.3|
3,1,1.6|
3,2,5.2|
3,3,1|
3,4,7.1|
3,5,3.6|
3,6,9.3|
3,7,6.1|
4,0,2.2|
4,1,5.9|
4,2,1.3|
4,3,7.7|
4,4,4.9|
4,5,0.23|
4,6,3.9|
4,7,5|
5,0,9.4|
5,1,6.6|
5,2,1.2|
5,3,6.5|
5,4,5.5|
5,5,5.1|
5,6,6.1|
5,7,9.2|
6,0,5.1|
6,1,7.6|
6,2,5.9|
6,3,3.2|
6,4,4.8|
6,5,8.2|
6,6,4.9|
6,7,0.95|
7,0,5.5|
7,1,3.7|
7,2,0.33|
7,3,3|
7,4,6.4|
7,5,1.3|
7,6,2|
7,7,8.2|
];
constraint_x7_x3=[
0,0,0.81|
0,1,6.6|
0,2,5.9|
0,3,1.3|
0,4,7.2|
0,5,9.4|
0,6,9.9|
0,7,9.8|
1,0,3.6|
1,1,1.6|
1,2,9.6|
1,3,6.8|
1,4,6.4|
1,5,3.3|
1,6,4.8|
1,7,6|
2,0,4|
2,1,8.7|
2,2,0.17|
2,3,8.8|
2,4,0.18|
2,5,5.7|
2,6,8.8|
2,7,2.6|
3,0,8.6|
3,1,6.7|
3,2,3.1|
3,3,5.6|
3,4,7.4|
3,5,4.5|
3,6,6.1|
3,7,3.9|
4,0,2.3|
4,1,6.9|
4,2,0.15|
4,3,7.2|
4,4,4.6|
4,5,1|
4,6,3.4|
4,7,5.7|
5,0,6.3|
5,1,7.8|
5,2,9|
5,3,6.5|
5,4,2.8|
5,5,9.8|
5,6,0.65|
5,7,5.4|
6,0,6.9|
6,1,2|
6,2,1.2|
6,3,7.3|
6,4,7.6|
6,5,8.6|
6,6,6.9|
6,7,7.1|
7,0,3.5|
7,1,2|
7,2,8|
7,3,7.6|
7,4,7.4|
7,5,8.6|
7,6,4.6|
7,7,1.2|
];
constraint_x7_x6=[
0,0,6.9|
0,1,7.3|
0,2,6.3|
0,3,8|
0,4,5.4|
0,5,2.9|
0,6,9.8|
0,7,3.6|
1,0,2.5|
1,1,7.3|
1,2,4.9|
1,3,5.4|
1,4,5.6|
1,5,9.7|
1,6,9.9|
1,7,0.96|
2,0,0.55|
2,1,8.1|
2,2,4|
2,3,7.3|
2,4,7.7|
2,5,5.8|
2,6,4.1|
2,7,4.6|
3,0,2.2|
3,1,5.5|
3,2,8.3|
3,3,0.64|
3,4,6.9|
3,5,7.1|
3,6,9.4|
3,7,4|
4,0,5.1|
4,1,3.5|
4,2,8.1|
4,3,1.5|
4,4,3.9|
4,5,1.9|
4,6,2.9|
4,7,6.3|
5,0,9.1|
5,1,2.4|
5,2,5.3|
5,3,4.9|
5,4,0.062|
5,5,3.6|
5,6,5.9|
5,7,9.6|
6,0,8.3|
6,1,8.4|
6,2,1.5|
6,3,0.61|
6,4,4.3|
6,5,4.3|
6,6,1|
6,7,9.3|
7,0,2.3|
7,1,9.5|
7,2,7.3|
7,3,0.72|
7,4,4.5|
7,5,3.1|
7,6,8.6|
7,7,0.37|
];
constraint_x8_x4=[
0,0,5.8|
0,1,4.3|
0,2,2.9|
0,3,6.8|
0,4,8|
0,5,7.9|
0,6,9.7|
0,7,9.7|
1,0,7.7|
1,1,3.8|
1,2,0.017|
1,3,1.3|
1,4,8.5|
1,5,5|
1,6,5.1|
1,7,0.3|
2,0,9|
2,1,0.35|
2,2,0.9|
2,3,0.025|
2,4,8.9|
2,5,8.4|
2,6,0.76|
2,7,5.8|
3,0,0.34|
3,1,3.8|
3,2,2|
3,3,1.4|
3,4,8.4|
3,5,5.6|
3,6,7.3|
3,7,2.1|
4,0,5.8|
4,1,9.5|
4,2,0.55|
4,3,1.1|
4,4,6.7|
4,5,3.8|
4,6,2|
4,7,2.6|
5,0,6.2|
5,1,4.4|
5,2,4.2|
5,3,3|
5,4,8.7|
5,5,5.6|
5,6,2.9|
5,7,0.32|
6,0,5.1|
6,1,2.8|
6,2,7.8|
6,3,1.5|
6,4,5.6|
6,5,9.2|
6,6,7.2|
6,7,0.46|
7,0,9.5|
7,1,9.9|
7,2,2.9|
7,3,7.6|
7,4,9.4|
7,5,3.2|
7,6,3.7|
7,7,6.8|
];
constraint_x8_x7=[
0,0,1.4|
0,1,7.4|
0,2,6.9|
0,3,7.4|
0,4,0.73|
0,5,2.3|
0,6,2.7|
0,7,9.3|
1,0,4.9|
1,1,1.8|
1,2,9.9|
1,3,9.6|
1,4,6.1|
1,5,7.4|
1,6,2.5|
1,7,8.3|
2,0,9.1|
2,1,2.9|
2,2,5|
2,3,7.8|
2,4,8.4|
2,5,3.3|
2,6,4.6|
2,7,9|
3,0,2.2|
3,1,7|
3,2,5.2|
3,3,2.8|
3,4,5.6|
3,5,4.8|
3,6,0.062|
3,7,3.6|
4,0,3|
4,1,3.8|
4,2,0.71|
4,3,0.64|
4,4,7.2|
4,5,8.1|
4,6,9.7|
4,7,0.27|
5,0,3.2|
5,1,9.1|
5,2,0.49|
5,3,0.91|
5,4,8.1|
5,5,4.1|
5,6,2.5|
5,7,0.87|
6,0,10|
6,1,7.1|
6,2,2.1|
6,3,5.2|
6,4,2.2|
6,5,5.9|
6,6,5.5|
6,7,0.49|
7,0,8.3|
7,1,5.6|
7,2,5.8|
7,3,2.2|
7,4,6.8|
7,5,4.4|
7,6,4.2|
7,7,6.9|
];
constraint_x9_x5=[
0,0,7.2|
0,1,1.5|
0,2,9.3|
0,3,3.3|
0,4,1.8|
0,5,1|
0,6,4.2|
0,7,9.9|
1,0,1.5|
1,1,4.5|
1,2,3.9|
1,3,1.1|
1,4,7.1|
1,5,9.7|
1,6,9.7|
1,7,0.54|
2,0,9.7|
2,1,4|
2,2,6.7|
2,3,5.1|
2,4,10|
2,5,0.15|
2,6,1.8|
2,7,7.9|
3,0,2.4|
3,1,1.4|
3,2,6.5|
3,3,5.4|
3,4,2|
3,5,4.7|
3,6,6.2|
3,7,6.5|
4,0,6.4|
4,1,5.8|
4,2,0.66|
4,3,8.3|
4,4,5.7|
4,5,3.3|
4,6,2.2|
4,7,6.3|
5,0,7|
5,1,8.4|
5,2,7.4|
5,3,7|
5,4,5.2|
5,5,9|
5,6,6|
5,7,2.2|
6,0,5.4|
6,1,4.1|
6,2,6.5|
6,3,5.4|
6,4,5|
6,5,1.6|
6,6,1.6|
6,7,6.3|
7,0,5.7|
7,1,5.6|
7,2,4.7|
7,3,0.46|
7,4,2.2|
7,5,4.1|
7,6,9.5|
7,7,4.4|
];
constraint_x10_x6=[
0,0,7.2|
0,1,5.5|
0,2,0.22|
0,3,3.1|
0,4,7.2|
0,5,0.3|
0,6,1.3|
0,7,10|
1,0,3.9|
1,1,4.8|
1,2,9.9|
1,3,5|
1,4,5|
1,5,6.5|
1,6,0.68|
1,7,7.8|
2,0,8.5|
2,1,6.2|
2,2,6.4|
2,3,2.9|
2,4,5|
2,5,2.2|
2,6,4.8|
2,7,2.9|
3,0,9.2|
3,1,8.2|
3,2,5.8|
3,3,3.6|
3,4,9|
3,5,4.5|
3,6,4.7|
3,7,3.1|
4,0,0.3|
4,1,5.8|
4,2,8.5|
4,3,5.9|
4,4,6|
4,5,5.1|
4,6,8.1|
4,7,6|
5,0,3.1|
5,1,5.5|
5,2,8.6|
5,3,0.5|
5,4,1|
5,5,8.4|
5,6,3.8|
5,7,0.032|
6,0,2.5|
6,1,8.8|
6,2,1.7|
6,3,2.2|
6,4,3.2|
6,5,3.5|
6,6,9.2|
6,7,8.9|
7,0,5.1|
7,1,2.7|
7,2,4.7|
7,3,9.6|
7,4,9.4|
7,5,0.75|
7,6,4.8|
7,7,1.5|
];
constraint_x11_x7=[
0,0,8.4|
0,1,5|
0,2,9.2|
0,3,8.1|
0,4,8.8|
0,5,4.1|
0,6,2.1|
0,7,5.8|
1,0,5.2|
1,1,9.3|
1,2,7.1|
1,3,4.7|
1,4,1.1|
1,5,6.5|
1,6,4.3|
1,7,4.3|
2,0,9.9|
2,1,9.8|
2,2,7|
2,3,8.1|
2,4,9.8|
2,5,7.3|
2,6,1.3|
2,7,2.9|
3,0,6.3|
3,1,9.7|
3,2,1.1|
3,3,5.2|
3,4,9|
3,5,9.8|
3,6,5.1|
3,7,5|
4,0,9|
4,1,2.2|
4,2,6.1|
4,3,6.9|
4,4,7.7|
4,5,7|
4,6,2.3|
4,7,6.1|
5,0,3.8|
5,1,9|
5,2,6.4|
5,3,6.5|
5,4,4.7|
5,5,3.5|
5,6,0.13|
5,7,3|
6,0,9.6|
6,1,1.8|
6,2,8.8|
6,3,7.3|
6,4,4.7|
6,5,1.8|
6,6,2.2|
6,7,9.9|
7,0,2.7|
7,1,3.1|
7,2,4.8|
7,3,9.9|
7,4,9.5|
7,5,0.97|
7,6,6.4|
7,7,2.3|
];
constraint_x12_x8=[
0,0,7.9|
0,1,5|
0,2,2.1|
0,3,2.8|
0,4,9.8|
0,5,6.6|
0,6,0.58|
0,7,5|
1,0,3.8|
1,1,0.66|
1,2,5.5|
1,3,3.8|
1,4,3.2|
1,5,9.1|
1,6,8.5|
1,7,9.6|
2,0,9|
2,1,4.6|
2,2,8.2|
2,3,5.4|
2,4,0.86|
2,5,5.6|
2,6,6.5|
2,7,6.8|
3,0,2.6|
3,1,9.9|
3,2,6.5|
3,3,8.5|
3,4,2.7|
3,5,0.39|
3,6,6.3|
3,7,8.5|
4,0,6.7|
4,1,2.9|
4,2,7.8|
4,3,6.2|
4,4,8.4|
4,5,1.6|
4,6,4.5|
4,7,6.3|
5,0,4.7|
5,1,5.1|
5,2,8.1|
5,3,4.8|
5,4,3.2|
5,5,8.5|
5,6,7.9|
5,7,2.7|
6,0,3.8|
6,1,3.7|
6,2,5|
6,3,8|
6,4,7.3|
6,5,0.97|
6,6,7|
6,7,9.1|
7,0,9.9|
7,1,4|
7,2,5.5|
7,3,4.5|
7,4,7.8|
7,5,2.7|
7,6,4.1|
7,7,8.2|
];
constraint_x13_x9=[
0,0,0.57|
0,1,6.5|
0,2,7.8|
0,3,3.3|
0,4,8.5|
0,5,2.5|
0,6,5.3|
0,7,2.7|
1,0,8.2|
1,1,9.1|
1,2,9|
1,3,7.6|
1,4,6.3|
1,5,8.7|
1,6,1.1|
1,7,6.9|
2,0,7|
2,1,2.9|
2,2,9.9|
2,3,3.7|
2,4,4.1|
2,5,3.5|
2,6,0.53|
2,7,4.5|
3,0,0.31|
3,1,3.7|
3,2,3.4|
3,3,1.1|
3,4,8.7|
3,5,7.4|
3,6,5.1|
3,7,5.5|
4,0,1.9|
4,1,5|
4,2,5.9|
4,3,5|
4,4,0.81|
4,5,2.6|
4,6,5.9|
4,7,0.87|
5,0,6.5|
5,1,3.4|
5,2,0.044|
5,3,3.8|
5,4,2.9|
5,5,4.3|
5,6,7|
5,7,1.9|
6,0,2.4|
6,1,5.7|
6,2,2.7|
6,3,6.2|
6,4,7.9|
6,5,4|
6,6,0.73|
6,7,6.6|
7,0,6.5|
7,1,6.5|
7,2,6.2|
7,3,2.9|
7,4,9|
7,5,2.8|
7,6,1|
7,7,0.52|
];
constraint_x14_x10=[
0,0,3.5|
0,1,3.8|
0,2,0.68|
0,3,8|
0,4,7.5|
0,5,0.26|
0,6,3.3|
0,7,2.4|
1,0,4.4|
1,1,8.5|
1,2,0.059|
1,3,8.3|
1,4,8.4|
1,5,2|
1,6,4.1|
1,7,0.98|
2,0,6.1|
2,1,5.2|
2,2,1.9|
2,3,4|
2,4,4.1|
2,5,1.4|
2,6,2.3|
2,7,6.6|
3,0,1.1|
3,1,7.6|
3,2,4.4|
3,3,2.8|
3,4,4.2|
3,5,8.6|
3,6,8.9|
3,7,4.6|
4,0,6.8|
4,1,2.7|
4,2,3|
4,3,7.4|
4,4,2|
4,5,1.3|
4,6,4.9|
4,7,2.4|
5,0,9.7|
5,1,1.2|
5,2,8|
5,3,8.2|
5,4,5.4|
5,5,3.5|
5,6,7.4|
5,7,5.4|
6,0,1.6|
6,1,6.8|
6,2,2.8|
6,3,5|
6,4,3.3|
6,5,4.2|
6,6,0.2|
6,7,3.4|
7,0,8.5|
7,1,7.3|
7,2,8.7|
7,3,0.78|
7,4,1.5|
7,5,2.3|
7,6,0.52|
7,7,9.1|
];
constraint_x1_y1=[
0,0,4|
0,1,0.97|
0,2,1.1|
0,3,8.3|
0,4,2|
0,5,3.6|
0,6,7.3|
0,7,4.3|
1,0,4.6|
1,1,0.9|
1,2,7|
1,3,7.2|
1,4,3.7|
1,5,0.58|
1,6,4.4|
1,7,3.5|
2,0,3.3|
2,1,6.3|
2,2,4|
2,3,6.5|
2,4,1.8|
2,5,4.2|
2,6,0.00065|
2,7,4.9|
3,0,1.9|
3,1,6.1|
3,2,0.45|
3,3,4.1|
3,4,1.7|
3,5,7|
3,6,1.7|
3,7,8.6|
4,0,4.4|
4,1,3.3|
4,2,7.2|
4,3,3.9|
4,4,5.3|
4,5,8.7|
4,6,2.1|
4,7,6.1|
5,0,0.13|
5,1,5.9|
5,2,7.1|
5,3,3.3|
5,4,8.4|
5,5,8.4|
5,6,2.1|
5,7,1.7|
6,0,0.35|
6,1,4.6|
6,2,2.3|
6,3,1.9|
6,4,1.3|
6,5,5.6|
6,6,3.1|
6,7,0.44|
7,0,5.7|
7,1,9.1|
7,2,0.15|
7,3,4.5|
7,4,0.88|
7,5,6.3|
7,6,3.2|
7,7,1.1|
];
constraint_x2_y2=[
0,0,8|
0,1,8.8|
0,2,9.7|
0,3,6.2|
0,4,3.1|
0,5,5.3|
0,6,4.1|
0,7,4.8|
1,0,8.6|
1,1,6.9|
1,2,7.5|
1,3,4.1|
1,4,6.6|
1,5,9.3|
1,6,1.5|
1,7,3.5|
2,0,5.1|
2,1,7.9|
2,2,7.5|
2,3,6.9|
2,4,2.3|
2,5,9.9|
2,6,7|
2,7,9.9|
3,0,8.1|
3,1,2.4|
3,2,6.2|
3,3,5.1|
3,4,7.5|
3,5,1.7|
3,6,9.2|
3,7,5|
4,0,2.6|
4,1,0.73|
4,2,5.2|
4,3,4.9|
4,4,0.9|
4,5,4.8|
4,6,5.1|
4,7,9.6|
5,0,0.11|
5,1,2.4|
5,2,7|
5,3,5.5|
5,4,5.6|
5,5,6|
5,6,3.2|
5,7,6.2|
6,0,2.5|
6,1,7.8|
6,2,0.91|
6,3,9.1|
6,4,2.8|
6,5,8.6|
6,6,3.2|
6,7,9.2|
7,0,3.5|
7,1,7.3|
7,2,2.5|
7,3,3.9|
7,4,3|
7,5,9.1|
7,6,5.8|
7,7,3.2|
];
constraint_x3_y3=[
0,0,3.4|
0,1,3.1|
0,2,0.73|
0,3,1.6|
0,4,2.8|
0,5,0.17|
0,6,0.78|
0,7,1.6|
1,0,9.9|
1,1,8.1|
1,2,0.92|
1,3,6.7|
1,4,8.4|
1,5,10|
1,6,6.8|
1,7,0.45|
2,0,1.5|
2,1,4.2|
2,2,3.1|
2,3,2.6|
2,4,4.3|
2,5,2.9|
2,6,4.3|
2,7,4.3|
3,0,9.8|
3,1,5.1|
3,2,9.6|
3,3,4.9|
3,4,1.1|
3,5,6.2|
3,6,2.1|
3,7,5.7|
4,0,6.3|
4,1,5.7|
4,2,3.2|
4,3,6.5|
4,4,7.9|
4,5,9.9|
4,6,0.78|
4,7,5.4|
5,0,6.6|
5,1,0.92|
5,2,1.7|
5,3,2.5|
5,4,2.1|
5,5,9.5|
5,6,2.4|
5,7,3.1|
6,0,4|
6,1,6.9|
6,2,3.1|
6,3,6.8|
6,4,5.6|
6,5,9.7|
6,6,2.1|
6,7,7.6|
7,0,3.8|
7,1,9.6|
7,2,5.9|
7,3,8.4|
7,4,8.9|
7,5,0.017|
7,6,4.4|
7,7,8.4|
];
constraint_x4_y4=[
0,0,6.9|
0,1,4.7|
0,2,6.9|
0,3,3.4|
0,4,6.3|
0,5,6|
0,6,4.2|
0,7,9.9|
1,0,0.99|
1,1,9.4|
1,2,2.1|
1,3,2.9|
1,4,8.5|
1,5,3.5|
1,6,1.4|
1,7,5|
2,0,5.6|
2,1,7.2|
2,2,5.5|
2,3,6.7|
2,4,1.8|
2,5,6.9|
2,6,6.5|
2,7,2.4|
3,0,8.9|
3,1,5.6|
3,2,7.6|
3,3,4.3|
3,4,0.81|
3,5,7|
3,6,4.5|
3,7,8.7|
4,0,4.8|
4,1,3.8|
4,2,6|
4,3,8.9|
4,4,4.1|
4,5,3.2|
4,6,9.9|
4,7,7.7|
5,0,1.3|
5,1,2.3|
5,2,7.5|
5,3,1.8|
5,4,6.9|
5,5,8.6|
5,6,5.2|
5,7,4.6|
6,0,9.8|
6,1,0.89|
6,2,2|
6,3,0.5|
6,4,4.7|
6,5,0.43|
6,6,5.4|
6,7,4.8|
7,0,7.2|
7,1,1.7|
7,2,2.2|
7,3,2.6|
7,4,0.41|
7,5,9.7|
7,6,2.3|
7,7,2.4|
];
constraint_x5_y5=[
0,0,7.4|
0,1,9.9|
0,2,2.4|
0,3,8.5|
0,4,6.4|
0,5,8.4|
0,6,9.8|
0,7,8.8|
1,0,8.1|
1,1,0.79|
1,2,0.27|
1,3,0.25|
1,4,8.9|
1,5,6.6|
1,6,5.9|
1,7,2|
2,0,1.8|
2,1,9.7|
2,2,0.05|
2,3,3.2|
2,4,0.45|
2,5,4|
2,6,3.1|
2,7,0.83|
3,0,9.6|
3,1,8.3|
3,2,4.4|
3,3,5.7|
3,4,6.1|
3,5,7.9|
3,6,6.6|
3,7,5|
4,0,2.7|
4,1,5.8|
4,2,4.4|
4,3,4.9|
4,4,2.7|
4,5,6.8|
4,6,8.3|
4,7,1.5|
5,0,8.9|
5,1,6.7|
5,2,4.1|
5,3,8.2|
5,4,5.5|
5,5,8.2|
5,6,4.7|
5,7,9.5|
6,0,3.5|
6,1,2.6|
6,2,3.7|
6,3,7|
6,4,6.4|
6,5,7|
6,6,5.2|
6,7,0.6|
7,0,6.6|
7,1,0.89|
7,2,6|
7,3,0.17|
7,4,4.5|
7,5,3.2|
7,6,8.2|
7,7,7.7|
];
constraint_x6_y6=[
0,0,1.3|
0,1,4.1|
0,2,6.4|
0,3,6.6|
0,4,5.2|
0,5,2.9|
0,6,1.3|
0,7,8.1|
1,0,4.4|
1,1,5|
1,2,1.1|
1,3,0.3|
1,4,2.3|
1,5,0.45|
1,6,4.2|
1,7,3.8|
2,0,3.3|
2,1,0.84|
2,2,2.7|
2,3,5.6|
2,4,2.9|
2,5,1.4|
2,6,0.39|
2,7,4.5|
3,0,2.4|
3,1,1.2|
3,2,7.1|
3,3,7.7|
3,4,0.81|
3,5,9.3|
3,6,7.9|
3,7,2.8|
4,0,7.4|
4,1,0.3|
4,2,5.3|
4,3,6.6|
4,4,4.9|
4,5,9|
4,6,5.6|
4,7,8.5|
5,0,2.8|
5,1,9.5|
5,2,3.7|
5,3,1.6|
5,4,0.13|
5,5,8.4|
5,6,9.4|
5,7,8.9|
6,0,2.7|
6,1,4|
6,2,1.1|
6,3,7.1|
6,4,7|
6,5,0.43|
6,6,8.1|
6,7,0.98|
7,0,3|
7,1,7.3|
7,2,6.5|
7,3,9.6|
7,4,9.5|
7,5,8.6|
7,6,2.1|
7,7,6.6|
];
initial_distribution_y1=[0.18,0.018,0.29,0.034,0.12,0.013,0.2,0.14];
initial_distribution_y2=[0.17,0.14,0.21,0.13,0.11,0.14,0.013,0.081];
initial_distribution_y3=[0.0055,0.24,0.17,0.26,0.05,0.0095,0.18,0.088];
initial_distribution_y4=[0.045,0.031,0.13,0.21,0.17,0.032,0.2,0.18];
initial_distribution_y5=[0.13,0.14,0.043,0.12,0.096,0.19,0.19,0.082];
initial_distribution_y6=[0.024,0.16,0.016,0.17,0.17,0.17,0.12,0.17];
transition_y1=[
0.13,0.12,0.044,0.098,0.19,0.19,0.19,0.034|
0.098,0.1,0.084,0.14,0.16,0.13,0.19,0.096|
0.081,0.19,0.12,0.14,0.015,0.11,0.13,0.21|
0.077,0.062,0.12,0.076,0.21,0.21,0.23,0.0088|
0.11,0.27,0.14,0.035,0.18,0.016,0.17,0.073|
0.12,0.19,0.19,0.07,0.085,0.2,0.11,0.039|
0.2,0.13,0.021,0.23,0.0029,0.027,0.16,0.22|
0.15,0.13,0.16,0.25,0.04,0.083,0.15,0.034|
];
transition_y2=[
0.19,0.023,0.24,0.25,0.094,0.14,0.0069,0.056|
0.11,0.027,0.02,0.17,0.18,0.084,0.16,0.25|
0.12,0.05,0.13,0.14,0.15,0.049,0.18,0.18|
0.14,0.068,0.04,0.17,0.2,0.061,0.17,0.16|
0.23,0.0089,0.059,0.14,0.049,0.19,0.14,0.19|
0.16,0.051,0.17,0.12,0.089,0.081,0.17,0.16|
0.13,0.18,0.15,0.079,0.17,0.08,0.14,0.068|
0.13,0.14,0.21,0.076,0.025,0.11,0.082,0.22|
];
transition_y3=[
0.022,0.21,0.18,0.17,0.19,0.016,0.1,0.12|
0.025,0.19,0.092,0.11,0.16,0.066,0.18,0.18|
0.1,0.12,0.26,0.15,0.008,0.11,0.22,0.037|
0.2,0.17,0.067,0.0073,0.12,0.22,0.064,0.16|
0.19,0.066,0.078,0.17,0.2,0.065,0.21,0.019|
0.013,0.081,0.06,0.15,0.073,0.23,0.21,0.17|
0.011,0.23,0.099,0.23,0.0073,0.12,0.057,0.24|
0.1,0.16,0.2,0.094,0.031,0.097,0.15,0.16|
];
transition_y4=[
0.2,0.063,0.24,0.12,0.11,0.22,0.038,0.0089|
0.016,0.21,0.16,0.15,0.019,0.12,0.21,0.11|
0.095,0.24,0.0064,0.18,0.061,0.086,0.12,0.21|
0.034,0.059,0.0068,0.18,0.23,0.16,0.092,0.24|
0.17,0.18,0.12,0.0064,0.19,0.12,0.17,0.05|
0.075,0.086,0.21,0.0048,0.25,0.16,0.11,0.096|
0.18,0.16,0.16,0.12,0.16,0.0052,0.095,0.12|
0.13,0.12,0.085,0.15,0.13,0.18,0.096,0.11|
];
transition_y5=[
0.16,0.092,0.043,0.12,0.2,0.17,0.091,0.12|
0.11,0.13,0.17,0.21,0.085,0.091,0.11,0.095|
0.091,0.23,0.023,0.018,0.097,0.22,0.12,0.2|
0.099,0.041,0.038,0.17,0.2,0.13,0.14,0.18|
0.15,0.31,0.11,0.13,0.074,0.11,0.073,0.05|
0.099,0.16,0.11,0.035,0.26,0.05,0.27,0.014|
0.053,0.14,0.15,0.1,0.21,0.035,0.11,0.19|
0.2,0.028,0.15,0.24,0.03,0.059,0.12,0.17|
];
transition_y6=[
0.19,0.27,0.13,0.03,0.18,0.047,0.063,0.084|
0.11,0.075,0.28,0.026,0.0057,0.13,0.16,0.22|
0.21,0.2,0.13,0.052,0.13,0.087,0.18,0.0034|
0.19,0.0046,0.13,0.082,0.2,0.24,0.13,0.016|
0.2,0.19,0.064,0.13,0.15,0.062,0.023,0.19|
0.17,0.058,0.17,0.16,0.03,0.17,0.18,0.067|
0.059,0.084,0.12,0.02,0.31,0.17,0.12,0.12|
0.08,0.21,0.082,0.18,0.064,0.1,0.16,0.13|
];
